%chk=geometry.chk
%mem=1GB
%nprocshared=1

#P LSDA/6-31G*

TitleMe

0 1
He 0.0 0.0 0.0




